
Gurobi 12.0.2 (mac64[arm]) logging started Fri Jun 13 19:52:49 2025

Set parameter LogFile to value "/Users/yurunfeng/Documents/GitHub/LRGTS-store-location/result/gurobi/snyder/15nodes/15-0.85-5.log"
Gurobi Optimizer version 12.0.2 build v12.0.2rc0 (mac64[arm] - Darwin 24.5.0 24F74)

CPU model: Apple M4
Thread count: 10 physical cores, 10 logical processors, using up to 10 threads

Non-default parameters:
TimeLimit  1200

Optimize a model with 4785 rows, 7245 columns and 33600 nonzeros
Model fingerprint: 0xd8e7110f
Variable types: 3615 continuous, 3630 integer (3630 binary)
Coefficient statistics:
  Matrix range     [2e-01, 1e+00]
  Objective range  [7e+03, 3e+06]
  Bounds range     [1e+00, 1e+00]
  RHS range        [1e+00, 5e+00]
Found heuristic solution: objective 1.648316e+07
Presolve removed 488 rows and 240 columns
Presolve time: 0.05s
Presolved: 4297 rows, 7005 columns, 30116 nonzeros
Variable types: 3375 continuous, 3630 integer (3630 binary)

Root relaxation: objective 7.732971e+05, 574 iterations, 0.01 seconds (0.02 work units)

    Nodes    |    Current Node    |     Objective Bounds      |     Work
 Expl Unexpl |  Obj  Depth IntInf | Incumbent    BestBd   Gap | It/Node Time

     0     0 773297.088    0  212 1.6483e+07 773297.088  95.3%     -    0s
H    0     0                    2332265.3377 773297.088  66.8%     -    0s
H    0     0                    1138173.8667 773297.088  32.1%     -    0s
H    0     0                    998486.90297 773297.088  22.6%     -    0s
H    0     0                    995319.37778 773297.088  22.3%     -    0s
H    0     0                    991521.30070 773297.088  22.0%     -    0s
H    0     0                    991520.77197 773297.088  22.0%     -    0s
H    0     0                    985268.93620 773297.088  21.5%     -    0s
H    0     0                    985268.24643 773297.088  21.5%     -    0s
H    0     0                    983360.75348 773297.088  21.4%     -    0s
H    0     0                    980057.55937 773297.088  21.1%     -    0s
H    0     0                    920364.52489 802590.351  12.8%     -    0s
H    0     0                    920294.02918 802590.351  12.8%     -    0s
H    0     0                    920020.62549 802590.351  12.8%     -    0s
     0     0 802590.351    0  187 920020.625 802590.351  12.8%     -    0s
H    0     0                    916231.38847 802590.351  12.4%     -    0s
H    0     0                    899473.30072 802590.351  10.8%     -    0s
H    0     0                    887370.09336 802590.351  9.55%     -    0s
H    0     0                    885110.91089 802590.351  9.32%     -    0s
H    0     0                    877476.87187 802590.351  8.53%     -    0s
H    0     0                    877143.67872 802590.351  8.50%     -    0s
     0     0 805767.511    0  305 877143.679 805767.511  8.14%     -    0s
     0     0 806666.153    0  311 877143.679 806666.153  8.03%     -    0s
     0     0 816504.879    0  400 877143.679 816504.879  6.91%     -    0s
     0     0 817354.435    0  403 877143.679 817354.435  6.82%     -    0s
     0     0 817618.502    0  401 877143.679 817618.502  6.79%     -    0s
H    0     0                    875840.49730 819280.315  6.46%     -    0s
H    0     0                    844039.03483 819280.315  2.93%     -    0s
H    0     0                    843047.00945 819280.315  2.82%     -    0s
H    0     0                    836761.71272 819280.315  2.09%     -    0s
H    0     0                    836119.28570 819280.315  2.01%     -    0s
H    0     0                    831157.45057 819280.315  1.43%     -    0s
H    0     0                    831157.44815 819280.315  1.43%     -    0s
H    0     0                    827981.79376 819774.315  0.99%     -    0s
     0     0 819774.315    0  470 827981.794 819774.315  0.99%     -    0s
     0     0 819774.315    0  475 827981.794 819774.315  0.99%     -    0s
     0     0 819774.315    0  475 827981.794 819774.315  0.99%     -    0s
     0     0 820124.100    0  490 827981.794 820124.100  0.95%     -    0s
     0     0 820124.100    0  234 827981.794 820124.100  0.95%     -    1s
     0     0 820124.100    0  233 827981.794 820124.100  0.95%     -    1s
     0     0 820124.100    0  379 827981.794 820124.100  0.95%     -    1s
     0     0 820124.100    0  347 827981.794 820124.100  0.95%     -    1s
     0     0 820124.100    0  360 827981.794 820124.100  0.95%     -    1s
     0     0 820124.100    0  358 827981.794 820124.100  0.95%     -    1s
     0     0 820124.100    0  419 827981.794 820124.100  0.95%     -    1s
     0     0 820124.100    0  420 827981.794 820124.100  0.95%     -    1s
     0     0 820124.100    0  429 827981.794 820124.100  0.95%     -    1s
     0     0 820124.100    0  424 827981.794 820124.100  0.95%     -    1s
     0     0 820124.100    0  429 827981.794 820124.100  0.95%     -    1s
     0     0 820124.100    0  386 827981.794 820124.100  0.95%     -    1s
H    0     0                    827948.74344 820124.100  0.95%     -    1s
     0     0 820124.100    0  343 827948.743 820124.100  0.95%     -    1s
     0     0 820124.100    0  287 827948.743 820124.100  0.95%     -    1s
     0     0 820124.100    0  248 827948.743 820124.100  0.95%     -    1s
     0     0 820124.100    0  356 827948.743 820124.100  0.95%     -    1s
     0     0 820124.100    0  356 827948.743 820124.100  0.95%     -    1s
     0     0 820124.100    0  384 827948.743 820124.100  0.95%     -    1s
     0     0 820124.100    0  389 827948.743 820124.100  0.95%     -    1s
     0     0 820124.100    0  391 827948.743 820124.100  0.95%     -    1s
H    0     0                    827601.83306 820124.100  0.90%     -    1s
H    0     0                    827574.64010 820124.100  0.90%     -    1s
     0     0 820124.100    0  356 827574.640 820124.100  0.90%     -    2s
     0     0 820198.973    0  392 827574.640 820198.973  0.89%     -    2s
     0     0 820443.046    0  371 827574.640 820443.046  0.86%     -    2s
     0     0 820501.587    0  349 827574.640 820501.587  0.85%     -    2s
     0     2 820501.587    0  344 827574.640 820501.587  0.85%     -    2s
H 2230  1309                    827574.64001 820501.587  0.85%  13.6    3s
  2326  1356 820501.587   26  134 827574.640 820501.587  0.85%  17.3    5s
 26430  8050 infeasible   56      827574.640 824814.129  0.33%  12.5   10s
 42426  9625 827335.259   46   69 827574.640 825328.789  0.27%  12.5   15s
 70718  9652 826475.987   64   50 827574.640 826003.831  0.19%  12.9   20s

Cutting planes:
  Cover: 43
  Implied bound: 16
  Clique: 1
  MIR: 54
  Mixing: 1
  Flow cover: 232
  GUB cover: 4
  Inf proof: 1
  Zero half: 12
  RLT: 14
  Relax-and-lift: 1
  BQP: 5

Explored 102822 nodes (1380432 simplex iterations) in 24.89 seconds (50.65 work units)
Thread count was 10 (of 10 available processors)

Solution count 10: 827575 827602 827949 ... 875840

Optimal solution found (tolerance 1.00e-04)
Best objective 8.275746400983e+05, best bound 8.275746400050e+05, gap 0.0000%
